p cnf 78 261
-7 1 0
-7 2 0
7 -1 -2 0
-8 1 0
-8 3 0
8 -1 -3 0
-9 1 0
-9 4 0
9 -1 -4 0
-10 1 0
-10 5 0
10 -1 -5 0
-11 1 0
-11 6 0
11 -1 -6 0
-12 2 0
-12 3 0
12 -2 -3 0
-13 2 0
-13 4 0
13 -2 -4 0
-14 2 0
-14 5 0
14 -2 -5 0
-15 2 0
-15 6 0
15 -2 -6 0
-16 3 0
-16 4 0
16 -3 -4 0
-17 3 0
-17 5 0
17 -3 -5 0
-18 3 0
-18 6 0
18 -3 -6 0
-19 4 0
-19 5 0
19 -4 -5 0
-20 4 0
-20 6 0
20 -4 -6 0
-21 5 0
-21 6 0
21 -5 -6 0
-22 0
2 -22 23 0
-2 -22 -23 0
2 -23 22 0
-2 22 23 0
3 -23 24 0
-3 -23 -24 0
3 -24 23 0
-3 23 24 0
4 -24 25 0
-4 -24 -25 0
4 -25 24 0
-4 24 25 0
18 -25 26 0
-18 -25 -26 0
18 -26 25 0
-18 25 26 0
20 -26 27 0
-20 -26 -27 0
20 -27 26 0
-20 26 27 0
21 -27 28 0
-21 -27 -28 0
21 -28 27 0
-21 27 28 0
-28 0
-29 0
1 -29 30 0
-1 -29 -30 0
1 -30 29 0
-1 29 30 0
2 -30 31 0
-2 -30 -31 0
2 -31 30 0
-2 30 31 0
3 -31 32 0
-3 -31 -32 0
3 -32 31 0
-3 31 32 0
5 -32 33 0
-5 -32 -33 0
5 -33 32 0
-5 32 33 0
10 -33 34 0
-10 -33 -34 0
10 -34 33 0
-10 33 34 0
11 -34 35 0
-11 -34 -35 0
11 -35 34 0
-11 34 35 0
14 -35 36 0
-14 -35 -36 0
14 -36 35 0
-14 35 36 0
15 -36 37 0
-15 -36 -37 0
15 -37 36 0
-15 36 37 0
-37 0
38 0
1 -38 39 0
-1 -38 -39 0
1 -39 38 0
-1 38 39 0
3 -39 40 0
-3 -39 -40 0
3 -40 39 0
-3 39 40 0
5 -40 41 0
-5 -40 -41 0
5 -41 40 0
-5 40 41 0
6 -41 42 0
-6 -41 -42 0
6 -42 41 0
-6 41 42 0
10 -42 43 0
-10 -42 -43 0
10 -43 42 0
-10 42 43 0
14 -43 44 0
-14 -43 -44 0
14 -44 43 0
-14 43 44 0
20 -44 45 0
-20 -44 -45 0
20 -45 44 0
-20 44 45 0
21 -45 46 0
-21 -45 -46 0
21 -46 45 0
-21 45 46 0
-46 0
47 0
2 -47 48 0
-2 -47 -48 0
2 -48 47 0
-2 47 48 0
6 -48 49 0
-6 -48 -49 0
6 -49 48 0
-6 48 49 0
7 -49 50 0
-7 -49 -50 0
7 -50 49 0
-7 49 50 0
8 -50 51 0
-8 -50 -51 0
8 -51 50 0
-8 50 51 0
9 -51 52 0
-9 -51 -52 0
9 -52 51 0
-9 51 52 0
11 -52 53 0
-11 -52 -53 0
11 -53 52 0
-11 52 53 0
13 -53 54 0
-13 -53 -54 0
13 -54 53 0
-13 53 54 0
15 -54 55 0
-15 -54 -55 0
15 -55 54 0
-15 54 55 0
21 -55 56 0
-21 -55 -56 0
21 -56 55 0
-21 55 56 0
-56 0
-57 0
4 -57 58 0
-4 -57 -58 0
4 -58 57 0
-4 57 58 0
5 -58 59 0
-5 -58 -59 0
5 -59 58 0
-5 58 59 0
6 -59 60 0
-6 -59 -60 0
6 -60 59 0
-6 59 60 0
8 -60 61 0
-8 -60 -61 0
8 -61 60 0
-8 60 61 0
9 -61 62 0
-9 -61 -62 0
9 -62 61 0
-9 61 62 0
11 -62 63 0
-11 -62 -63 0
11 -63 62 0
-11 62 63 0
16 -63 64 0
-16 -63 -64 0
16 -64 63 0
-16 63 64 0
18 -64 65 0
-18 -64 -65 0
18 -65 64 0
-18 64 65 0
20 -65 66 0
-20 -65 -66 0
20 -66 65 0
-20 65 66 0
21 -66 67 0
-21 -66 -67 0
21 -67 66 0
-21 66 67 0
-67 0
68 0
1 -68 69 0
-1 -68 -69 0
1 -69 68 0
-1 68 69 0
2 -69 70 0
-2 -69 -70 0
2 -70 69 0
-2 69 70 0
3 -70 71 0
-3 -70 -71 0
3 -71 70 0
-3 70 71 0
5 -71 72 0
-5 -71 -72 0
5 -72 71 0
-5 71 72 0
6 -72 73 0
-6 -72 -73 0
6 -73 72 0
-6 72 73 0
7 -73 74 0
-7 -73 -74 0
7 -74 73 0
-7 73 74 0
10 -74 75 0
-10 -74 -75 0
10 -75 74 0
-10 74 75 0
12 -75 76 0
-12 -75 -76 0
12 -76 75 0
-12 75 76 0
17 -76 77 0
-17 -76 -77 0
17 -77 76 0
-17 76 77 0
19 -77 78 0
-19 -77 -78 0
19 -78 77 0
-19 77 78 0
-78 0
